solution/p_2_2.txt_600.row.sol
<?xml version = "1.0" encoding="UTF-8" standalone="yes"?>
<CPLEXSolution version="1.2">
 <header
   problemName="ilog.cplex"
   solutionName="incumbent"
   solutionIndex="-1"
   objectiveValue="60"
   solutionTypeValue="3"
   solutionTypeString="primal"
   solutionStatusValue="101"
   solutionStatusString="integer optimal solution"
   solutionMethodString="mip"
   primalFeasible="1"
   dualFeasible="1"
   MIPNodes="0"
   MIPIterations="0"
   writeLevel="1"/>
 <quality
   epInt="1.0000000000000001e-05"
   epRHS="9.9999999999999995e-07"
   maxIntInfeas="0"
   maxPrimalInfeas="0"
   maxX="1"
   maxSlack="62"/>
 <linearConstraints>
  <constraint index="0" slack="36"/>
  <constraint index="1" slack="62"/>
  <constraint index="2" slack="0"/>
  <constraint index="3" slack="0"/>
  <constraint index="4" slack="0"/>
  <constraint index="5" slack="0"/>
 </linearConstraints>
 <variables>
  <variable name="x_ijk_0_0_0" index="0" value="1"/>
  <variable name="x_ijk_0_1_0" index="1" value="0"/>
  <variable name="x_ijk_1_0_0" index="2" value="1"/>
  <variable name="x_ijk_1_1_0" index="3" value="0"/>
  <variable name="x_ijk_1_2_0" index="4" value="0"/>
  <variable name="x_ijk_0_0_1" index="5" value="1"/>
  <variable name="x_ijk_0_1_1" index="6" value="0"/>
  <variable name="x_ijk_1_0_1" index="7" value="1"/>
  <variable name="x_ijk_1_1_1" index="8" value="0"/>
  <variable name="x_ijk_1_2_1" index="9" value="0"/>
 </variables>
</CPLEXSolution>
