solution/p_2_2.txt_600.row.log
CPXPARAM_TimeLimit                               600
CPXPARAM_WorkMem                                 4096
CPXPARAM_Threads                                 1
Found incumbent of value 0,000000 after 0,00 sec. (0,00 ticks)
Tried aggregator 1 time.
MIP Presolve eliminated 6 rows and 10 columns.
MIP Presolve modified 7 coefficients.
All rows and columns eliminated.
Presolve time = 0,00 sec. (0,01 ticks)

Root node processing (before b&c):
  Real time             =    0,00 sec. (0,02 ticks)
Sequential b&c:
  Real time             =    0,00 sec. (0,00 ticks)
                          ------------
Total (root+branch&cut) =    0,00 sec. (0,02 ticks)
